
Gurobi 8.1.0 (win64, Python) logging started 11/17/19 22:34:50

Academic license - for non-commercial use only
Read LP format model from file ../Data/Bartender.lp
Reading time = 0.01 seconds
OBJ: 4 rows, 3 columns, 8 nonzeros
Optimize a model with 4 rows, 3 columns and 8 nonzeros
Coefficient statistics:
  Matrix range     [2e+01, 5e+01]
  Objective range  [5e+00, 7e+00]
  Bounds range     [0e+00, 0e+00]
  RHS range        [3e+03, 7e+03]
Presolve removed 1 rows and 0 columns
Presolve time: 0.05s
Presolved: 3 rows, 3 columns, 7 nonzeros

Iteration    Objective       Primal Inf.    Dual Inf.      Time
       0    2.4500000e+03   2.937500e+02   0.000000e+00      0s
       3    1.6650000e+03   0.000000e+00   0.000000e+00      0s

Solved in 3 iterations and 0.07 seconds
Optimal objective  1.665000000e+03

Gurobi 8.1.0 (win64, Python) logging started 11/17/19 22:44:22

Academic license - for non-commercial use only
Read LP format model from file ../Data/VehicleManufacturing.lp
Reading time = 0.01 seconds
OBJ: 6 rows, 3 columns, 10 nonzeros
Optimize a model with 6 rows, 3 columns and 10 nonzeros
Coefficient statistics:
  Matrix range     [6e-01, 3e+00]
  Objective range  [5e+01, 4e+02]
  Bounds range     [0e+00, 0e+00]
  RHS range        [3e+01, 3e+02]
Presolve removed 3 rows and 0 columns
Presolve time: 0.01s
Presolved: 3 rows, 3 columns, 7 nonzeros

Iteration    Objective       Primal Inf.    Dual Inf.      Time
       0    3.3127727e+04   1.305018e+00   0.000000e+00      0s
       1    3.2540000e+04   0.000000e+00   0.000000e+00      0s

Solved in 1 iterations and 0.02 seconds
Optimal objective  3.254000000e+04

Gurobi 8.1.0 (win64, Python) logging started 11/17/19 22:47:41

Academic license - for non-commercial use only
Read LP format model from file ../Data/VehicleManufacturing.lp
Reading time = 0.01 seconds
OBJ: 6 rows, 3 columns, 10 nonzeros
Optimize a model with 6 rows, 3 columns and 10 nonzeros
Coefficient statistics:
  Matrix range     [6e-01, 3e+00]
  Objective range  [5e+01, 4e+02]
  Bounds range     [0e+00, 0e+00]
  RHS range        [3e+01, 3e+02]
Presolve removed 3 rows and 0 columns
Presolve time: 0.02s
Presolved: 3 rows, 3 columns, 7 nonzeros

Iteration    Objective       Primal Inf.    Dual Inf.      Time
       0    3.3127727e+04   1.305018e+00   0.000000e+00      0s
       1    3.2540000e+04   0.000000e+00   0.000000e+00      0s

Solved in 1 iterations and 0.04 seconds
Optimal objective  3.254000000e+04
Read LP format model from file ../Data/ComputerProduction.lp
Reading time = 0.00 seconds
OBJ: 6 rows, 5 columns, 14 nonzeros
Optimize a model with 6 rows, 5 columns and 14 nonzeros
Coefficient statistics:
  Matrix range     [1e+00, 4e+00]
  Objective range  [2e+01, 1e+03]
  Bounds range     [0e+00, 0e+00]
  RHS range        [8e+02, 4e+03]
Presolve removed 1 rows and 0 columns
Presolve time: 0.01s
Presolved: 5 rows, 5 columns, 13 nonzeros

Iteration    Objective       Primal Inf.    Dual Inf.      Time
       0    1.8400000e+06   5.747748e+02   0.000000e+00      0s
       4    1.3733333e+06   0.000000e+00   0.000000e+00      0s

Solved in 4 iterations and 0.02 seconds
Optimal objective  1.373333333e+06

Gurobi 8.1.0 (win64, Python) logging started 11/17/19 22:55:51

Academic license - for non-commercial use only
Read LP format model from file ../Data/ComputerProduction.lp
Reading time = 0.00 seconds
OBJ: 6 rows, 5 columns, 14 nonzeros
Optimize a model with 6 rows, 5 columns and 14 nonzeros
Coefficient statistics:
  Matrix range     [1e+00, 4e+00]
  Objective range  [2e+01, 1e+03]
  Bounds range     [0e+00, 0e+00]
  RHS range        [8e+02, 4e+03]
Presolve removed 1 rows and 0 columns
Presolve time: 0.01s
Presolved: 5 rows, 5 columns, 13 nonzeros

Iteration    Objective       Primal Inf.    Dual Inf.      Time
       0    1.8400000e+06   5.747748e+02   0.000000e+00      0s
       4    1.3733333e+06   0.000000e+00   0.000000e+00      0s

Solved in 4 iterations and 0.02 seconds
Optimal objective  1.373333333e+06

Gurobi 8.1.0 (win64, Python) logging started 11/17/19 22:59:11

Academic license - for non-commercial use only
Read LP format model from file ../Data/ComputerProduction.lp
Reading time = 0.00 seconds
OBJ: 6 rows, 5 columns, 14 nonzeros
Optimize a model with 6 rows, 5 columns and 14 nonzeros
Coefficient statistics:
  Matrix range     [1e+00, 4e+00]
  Objective range  [2e+01, 1e+03]
  Bounds range     [0e+00, 0e+00]
  RHS range        [8e+02, 3e+03]
Presolve removed 1 rows and 0 columns
Presolve time: 0.01s
Presolved: 5 rows, 5 columns, 13 nonzeros

Iteration    Objective       Primal Inf.    Dual Inf.      Time
       0    1.8400000e+06   5.870870e+02   0.000000e+00      0s
       4    1.0600000e+06   0.000000e+00   0.000000e+00      0s

Solved in 4 iterations and 0.03 seconds
Optimal objective  1.060000000e+06

Gurobi 8.1.0 (win64, Python) logging started 11/17/19 23:01:23

Academic license - for non-commercial use only
Read LP format model from file ../Data/ComputerProduction.lp
Reading time = 0.01 seconds
OBJ: 6 rows, 5 columns, 14 nonzeros
Optimize a model with 6 rows, 5 columns and 14 nonzeros
Coefficient statistics:
  Matrix range     [1e+00, 4e+00]
  Objective range  [2e+01, 1e+03]
  Bounds range     [0e+00, 0e+00]
  RHS range        [8e+02, 4e+03]
Presolve removed 1 rows and 0 columns
Presolve time: 0.02s
Presolved: 5 rows, 5 columns, 13 nonzeros

Iteration    Objective       Primal Inf.    Dual Inf.      Time
       0    1.8400000e+06   5.747748e+02   0.000000e+00      0s
       4    1.3733333e+06   0.000000e+00   0.000000e+00      0s

Solved in 4 iterations and 0.03 seconds
Optimal objective  1.373333333e+06

Gurobi 8.1.0 (win64, Python) logging started 11/17/19 23:05:15

Academic license - for non-commercial use only
Read LP format model from file ../Data/ComputerProduction.lp
Reading time = 0.01 seconds
OBJ: 6 rows, 5 columns, 14 nonzeros
Optimize a model with 6 rows, 5 columns and 14 nonzeros
Coefficient statistics:
  Matrix range     [1e+00, 4e+00]
  Objective range  [2e+01, 1e+03]
  Bounds range     [0e+00, 0e+00]
  RHS range        [8e+02, 4e+03]
Presolve removed 1 rows and 0 columns
Presolve time: 0.02s
Presolved: 5 rows, 5 columns, 13 nonzeros

Iteration    Objective       Primal Inf.    Dual Inf.      Time
       0    1.9400000e+06   5.997748e+02   0.000000e+00      0s
       2    1.3600000e+06   0.000000e+00   0.000000e+00      0s

Solved in 2 iterations and 0.05 seconds
Optimal objective  1.360000000e+06
Read LP format model from file ../Data/VehicleManufacturing.lp
Reading time = 0.00 seconds
OBJ: 6 rows, 3 columns, 10 nonzeros
Optimize a model with 6 rows, 3 columns and 10 nonzeros
Coefficient statistics:
  Matrix range     [6e-01, 3e+00]
  Objective range  [5e+01, 4e+02]
  Bounds range     [0e+00, 0e+00]
  RHS range        [3e+01, 3e+02]
Presolve removed 3 rows and 0 columns
Presolve time: 0.01s
Presolved: 3 rows, 3 columns, 7 nonzeros

Iteration    Objective       Primal Inf.    Dual Inf.      Time
       0    3.3127727e+04   1.305018e+00   0.000000e+00      0s
       1    3.2540000e+04   0.000000e+00   0.000000e+00      0s

Solved in 1 iterations and 0.02 seconds
Optimal objective  3.254000000e+04

Gurobi 8.1.0 (win64, Python) logging started 11/18/19 16:36:22

Academic license - for non-commercial use only
Read LP format model from file ../Data/VehicleManufacturing.lp
Reading time = 0.02 seconds
OBJ: 6 rows, 3 columns, 10 nonzeros
Optimize a model with 6 rows, 3 columns and 10 nonzeros
Coefficient statistics:
  Matrix range     [6e-01, 3e+00]
  Objective range  [5e+01, 4e+02]
  Bounds range     [0e+00, 0e+00]
  RHS range        [3e+01, 3e+02]
Presolve removed 3 rows and 0 columns
Presolve time: 0.03s
Presolved: 3 rows, 3 columns, 7 nonzeros

Iteration    Objective       Primal Inf.    Dual Inf.      Time
       0    3.3127727e+04   1.305018e+00   0.000000e+00      0s
       1    3.2540000e+04   0.000000e+00   0.000000e+00      0s

Solved in 1 iterations and 0.05 seconds
Optimal objective  3.254000000e+04
Read LP format model from file ../Data/VehicleManufacturing.lp
Reading time = 0.00 seconds
OBJ: 6 rows, 3 columns, 10 nonzeros
Optimize a model with 6 rows, 3 columns and 10 nonzeros
Coefficient statistics:
  Matrix range     [6e-01, 3e+00]
  Objective range  [5e+01, 4e+02]
  Bounds range     [0e+00, 0e+00]
  RHS range        [3e+01, 3e+02]
Presolve removed 3 rows and 0 columns
Presolve time: 0.01s
Presolved: 3 rows, 3 columns, 7 nonzeros

Iteration    Objective       Primal Inf.    Dual Inf.      Time
       0    3.3127727e+04   1.305018e+00   0.000000e+00      0s
       1    3.2540000e+04   0.000000e+00   0.000000e+00      0s

Solved in 1 iterations and 0.02 seconds
Optimal objective  3.254000000e+04

Gurobi 8.1.0 (win64, Python) logging started 11/18/19 16:39:03

Academic license - for non-commercial use only
Read LP format model from file ../Data/VehicleManufacturing.lp
Reading time = 0.02 seconds
OBJ: 6 rows, 3 columns, 10 nonzeros
Optimize a model with 6 rows, 3 columns and 10 nonzeros
Coefficient statistics:
  Matrix range     [6e-01, 3e+00]
  Objective range  [5e+01, 4e+02]
  Bounds range     [0e+00, 0e+00]
  RHS range        [3e+01, 3e+02]
Presolve removed 3 rows and 0 columns
Presolve time: 0.01s
Presolved: 3 rows, 3 columns, 7 nonzeros

Iteration    Objective       Primal Inf.    Dual Inf.      Time
       0    3.3127727e+04   1.104818e+00   0.000000e+00      0s
       3    3.2760000e+04   0.000000e+00   0.000000e+00      0s

Solved in 3 iterations and 0.02 seconds
Optimal objective  3.276000000e+04

Gurobi 8.1.0 (win64, Python) logging started 11/18/19 16:46:26

Academic license - for non-commercial use only
Read LP format model from file ../Data/VehicleManufacturing.lp
Reading time = 0.00 seconds
OBJ: 6 rows, 3 columns, 10 nonzeros
Optimize a model with 6 rows, 3 columns and 10 nonzeros
Coefficient statistics:
  Matrix range     [6e-01, 3e+00]
  Objective range  [5e+01, 4e+02]
  Bounds range     [0e+00, 0e+00]
  RHS range        [3e+01, 3e+02]
Presolve removed 3 rows and 1 columns
Presolve time: 0.04s
Presolved: 3 rows, 2 columns, 6 nonzeros

Iteration    Objective       Primal Inf.    Dual Inf.      Time
       0    3.2890000e+04   5.105000e-01   0.000000e+00      0s
       2    3.2750000e+04   0.000000e+00   0.000000e+00      0s

Solved in 2 iterations and 0.05 seconds
Optimal objective  3.275000000e+04

Gurobi 8.1.0 (win64, Python) logging started 11/18/19 16:50:38

Academic license - for non-commercial use only
Read LP format model from file ../Data/VehicleManufacturing.lp
Reading time = 0.01 seconds
OBJ: 6 rows, 3 columns, 10 nonzeros
Optimize a model with 6 rows, 3 columns and 10 nonzeros
Coefficient statistics:
  Matrix range     [6e-01, 3e+00]
  Objective range  [5e+01, 4e+02]
  Bounds range     [0e+00, 0e+00]
  RHS range        [3e+01, 3e+02]
Presolve removed 3 rows and 0 columns
Presolve time: 0.02s
Presolved: 3 rows, 3 columns, 7 nonzeros

Iteration    Objective       Primal Inf.    Dual Inf.      Time
       0    3.3127727e+04   1.104818e+00   0.000000e+00      0s
       2    3.2760000e+04   0.000000e+00   0.000000e+00      0s

Solved in 2 iterations and 0.03 seconds
Optimal objective  3.276000000e+04

Gurobi 8.1.0 (win64, Python) logging started 11/18/19 17:01:59

Academic license - for non-commercial use only
Read LP format model from file ../Data/VehicleManufacturing.lp
Reading time = 0.00 seconds
OBJ: 6 rows, 3 columns, 10 nonzeros
Optimize a model with 6 rows, 3 columns and 10 nonzeros
Coefficient statistics:
  Matrix range     [6e-01, 3e+00]
  Objective range  [5e+01, 4e+02]
  Bounds range     [0e+00, 0e+00]
  RHS range        [3e+01, 3e+02]
Presolve removed 3 rows and 0 columns
Presolve time: 0.02s
Presolved: 3 rows, 3 columns, 7 nonzeros

Iteration    Objective       Primal Inf.    Dual Inf.      Time
       0    3.3127727e+04   1.305018e+00   0.000000e+00      0s
       1    3.2540000e+04   0.000000e+00   0.000000e+00      0s

Solved in 1 iterations and 0.03 seconds
Optimal objective  3.254000000e+04

Gurobi 8.1.0 (win64, Python) logging started 11/18/19 17:02:11

Academic license - for non-commercial use only
Read LP format model from file ../Data/VehicleManufacturing.lp
Reading time = 0.01 seconds
OBJ: 6 rows, 3 columns, 10 nonzeros
Optimize a model with 6 rows, 3 columns and 10 nonzeros
Coefficient statistics:
  Matrix range     [6e-01, 3e+00]
  Objective range  [5e+01, 4e+02]
  Bounds range     [0e+00, 0e+00]
  RHS range        [3e+01, 3e+02]
Presolve removed 3 rows and 0 columns
Presolve time: 0.02s
Presolved: 3 rows, 3 columns, 7 nonzeros

Iteration    Objective       Primal Inf.    Dual Inf.      Time
       0    3.3127727e+04   1.305018e+00   0.000000e+00      0s
       1    3.2540000e+04   0.000000e+00   0.000000e+00      0s

Solved in 1 iterations and 0.03 seconds
Optimal objective  3.254000000e+04
